NAME: kroC100
COMMENT: Integrantes: Leticia Almeida, Isabelli Pinho e Elislandia Aparecida; Metodo: VND com multi-start filtrado, Vizinho Mais Proximo, 2-Opt e Swap
TYPE: TOUR
DIMENSION: 100
TOTAL_WEIGHT: 21046
TOUR_SECTION
92
19
99
93
4
60
69
3
73
59
41
89
30
68
2
35
23
21
70
76
91
94
95
50
62
83
72
86
5
43
56
71
38
39
28
88
98
58
34
90
25
17
8
22
75
54
6
80
77
65
31
47
67
55
42
20
64
79
13
15
27
85
1
53
40
12
46
24
32
61
26
7
82
78
9
29
49
18
37
16
51
63
44
66
48
84
11
52
87
96
97
81
45
33
100
74
57
36
14
10
EOF
